sat
(:added-eqs                   744
 :arith-eq-adapter            95
 :arith-bound-propagations-lp 8
 :arith-conflicts             46
 :arith-diseq                 6
 :arith-fixed-eqs             15
 :arith-gcd-calls             1
 :arith-grobner-calls         2
 :arith-lower                 128
 :arith-make-feasible         94
 :arith-max-columns           1413
 :arith-max-rows              525
 :arith-nla-add-bounds        2
 :arith-nla-lemmas            10
 :arith-nla-propagate-bounds  35
 :arith-nla-propagate-eq      608
 :arith-nra-calls             1
 :arith-offset-eqs            33
 :arith-patches               1
 :arith-patches-success       1
 :arith-upper                 308
 :binary-propagations         467
 :conflicts                   5
 :decisions                   427
 :del-clause                  6
 :final-checks                8
 :max-memory                  61.98
 :memory                      18.43
 :mk-bool-var                 926
 :mk-clause                   124
 :mk-clause-binary            5554
 :nlsat-conflicts             102
 :nlsat-propagations          7488
 :nlsat-stages                7086
 :num-allocs                  30135379
 :num-checks                  1
 :propagations                484
 :rlimit-count                218926
 :sls-arith-steps             3462
 :sls-ddfw-flips              1327.00
 :sls-ddfw-shifts             59.00
 :sls-num-guided-search       2
 :sls-repair-down             449
 :sls-repair-up               1007
 :solve-eqs-elim-vars         130
 :solve-eqs-steps             2209
 :time                        0.19
 :total-time                  0.20)
